units		real
atom_style	full
boundary	p p p 

    
pair_style	lj/cut/tip4p/long 1 2 1 1 0.1250 10 8.5
kspace_style 	pppm/tip4p 1.0e-4
bond_style   	harmonic
angle_style  	harmonic

read_data	inputFiles/waters.lmpsys


timestep	1.0
#neighbor	1.0 bin
neigh_modify    every 1 delay 0 check yes

bond_coeff   	1 250 0.9572                      #TIP4P 
angle_coeff  	1 60  104.52  
pair_coeff   	* * 0.00000 0.00000
pair_coeff   	1 1 0.16275 3.16435  	        # OT


velocity        all create ${temperature} 7654321 


minimize 	1.0e-6 1.0e-6 10000 10000



#fix 		fxshk all shake 0.0001 20 0 b 1 a 1
#fix 		fxnvt all nvt temp ${temperature} ${temperature} 100.0
fix             fxnpt all npt temp ${temperature} ${temperature} 100.0 iso 1.0 1.0 1000.0 

variable        Nevery equal 20                      #Specify the distance (in timesteps) between samples for computing ensemble aver$
                                                     #  (Interval between samples in a block)
variable        Nrepeat equal 50                     #Specify the number of samples per output  of thermodynamic averages
                                                     #  (Samples per block output)
variable        Nfreq equal ${Nevery}*${Nrepeat}     #Specify the dump interval (in timesteps)
                                                     #  (Some people call these blocks)
variable        PotentialEnergy equal epair         #Call the intermolecular potential energy $PotentialEnergy
variable        Pressure equal press                #Call the pressure $Pressure
variable        Temperature equal temp              #Call the instantaneous temperature $Temperature
variable        Density equal density               #Call the instantaneous density $Density (will not change for NVT)


fix             3 all ave/time ${Nevery} ${Nrepeat} ${Nfreq} v_Temperature v_PotentialEnergy v_Pressure file   ave_NPT_${temperature}.out


thermo_style    custom step temp press  vol density epair
thermo          1000
log             outputFiles/water_NPT_${temperature}.log



#run 		10000
#dump            dmpall	all dcd	1000 outputFiles/water_${density}_${temperature}.dcd  
dump            dmpall	all dcd	10 outputFiles/water_NPT_${temperature}.dcd 
run 		1000000







